units           real
atom_style      full
boundary        p p p
dielectric      1

pair_style      hybrid lj/cut/coul/long 8.50000 11.5
bond_style      harmonic
angle_style     hybrid fourier fourier/simple
dihedral_style  harmonic
improper_style  fourier
kspace_style    ewald 0.001

box tilt        large
read_data       data.CoBDP_template_expanded_MatStu

dump            CoBDP_template_expanded_MatStu_mov all xyz 1 CoBDP_template_expanded_MatStu_mov.xyz
pair_modify     tail yes mix arithmetic
fix             1 all box/relax tri 0.0 vmax 0.01
min_style       cg
minimize        1.0e-4 1.0e-6 10000 100000
